     Program PHONON v.6.7MaX starts on 27Nov2023 at 15:27:29

     Waiting for input...
     Reading input from standard input

     Reading xml data from directory:

     /home/user11/Downloads/lab-test/tmp/_ph0/tinisn.save/
     Message from routine qexsd_readschema :
     input info not found or not readable in xml file
     Message from routine readpp:
     file /home/user11/Downloads/lab-test/tmp/_ph0/tinisn.save/ti_pbe_v1.4.uspp.F.UPF not found
     Message from routine readpp:
     file /home/user11/Downloads/lab-test/tmp/_ph0/tinisn.save/ni_pbe_v1.4.uspp.F.UPF not found
     Message from routine readpp:
     file /home/user11/Downloads/lab-test/tmp/_ph0/tinisn.save/Sn_pbe_v1.uspp.F.UPF not found

     IMPORTANT: XC functional enforced from input :
     Exchange-correlation= PBE
                           (   1   4   3   4   0   0   0)
     Any further DFT definition will be discarded
     Please, verify this is what you really want

     Check: negative core charge=   -0.000297
     read_file_new: Wavefunctions not in collected format?!?
     read_file: Wavefunctions in collected format not available
 end of file reached, closing tag not found
warning: file closed at level 1 with tag Root open
        2 /   3 q-points for this run, from  2 to  3:
       N       xq(1)         xq(2)         xq(3)
       1   0.000000000   0.000000000   0.000000000
       2   0.500000000  -0.500000000   0.500000000
       3   0.000000000  -1.000000000   0.000000000

     Calculation of q =    0.5000000  -0.5000000   0.5000000

     Bands found: reading from /home/user11/Downloads/lab-test/tmp/_ph0/

     Reading xml data from directory:

     /home/user11/Downloads/lab-test/tmp/_ph0/tinisn.save/
     Message from routine qexsd_readschema :
     input info not found or not readable in xml file
     Message from routine readpp:
     file /home/user11/Downloads/lab-test/tmp/_ph0/tinisn.save/ti_pbe_v1.4.uspp.F.UPF not found
     Message from routine readpp:
     file /home/user11/Downloads/lab-test/tmp/_ph0/tinisn.save/ni_pbe_v1.4.uspp.F.UPF not found
     Message from routine readpp:
     file /home/user11/Downloads/lab-test/tmp/_ph0/tinisn.save/Sn_pbe_v1.uspp.F.UPF not found

     IMPORTANT: XC functional enforced from input :
     Exchange-correlation= PBE
                           (   1   4   3   4   0   0   0)
     Any further DFT definition will be discarded
     Please, verify this is what you really want

     Check: negative core charge=   -0.000297
     read_file_new: Wavefunctions not in collected format?!?
     read_file: Wavefunctions in collected format not available
 end of file reached, closing tag not found
warning: file closed at level 1 with tag Root open
 end of file reached, closing tag not found
warning: file closed at level 1 with tag Root open
 end of file reached, closing tag not found
warning: file closed at level 1 with tag Root open
 end of file reached, closing tag not found
warning: file closed at level 1 with tag Root open
     Message from routine ph_restart_set_filename :
     cannot open file for reading or writing
     Message from routine ph_restart_set_filename :
     cannot open file for reading or writing
     Message from routine ph_restart_set_filename :
     cannot open file for reading or writing

     Restart in Phonon calculation

     phonons of tisisn

     bravais-lattice index     =            2
     lattice parameter (alat)  =      11.2270  a.u.
     unit-cell volume          =     353.7783 (a.u.)^3
     number of atoms/cell      =            3
     number of atomic types    =            3
     kinetic-energy cut-off    =      30.0000  Ry
     charge density cut-off    =     120.0000  Ry
     convergence threshold     =      1.0E-12
     beta                      =       0.7000
     number of iterations used =            4
     Exchange-correlation= PBE
                           (   1   4   3   4   0   0   0)

     celldm(1)=   11.22700  celldm(2)=    0.00000  celldm(3)=    0.00000
     celldm(4)=    0.00000  celldm(5)=    0.00000  celldm(6)=    0.00000

     crystal axes: (cart. coord. in units of alat)
               a(1) = ( -0.5000  0.0000  0.5000 )
               a(2) = (  0.0000  0.5000  0.5000 )
               a(3) = ( -0.5000  0.5000  0.0000 )

     reciprocal axes: (cart. coord. in units 2 pi/alat)
               b(1) = ( -1.0000 -1.0000  1.0000 )
               b(2) = (  1.0000  1.0000  1.0000 )
               b(3) = ( -1.0000  1.0000 -1.0000 )

     Atoms inside the unit cell:

     Cartesian axes

     site n.  atom      mass           positions (alat units)
        1     Ti  47.8670   tau(    1) = (    0.50000    0.50000    0.50000  )
        2     Ni  58.6935   tau(    2) = (    0.25000    0.25000    0.25000  )
        3     Sn 118.7100   tau(    3) = (    0.00000    0.00000    0.00000  )

     Computing dynamical matrix for
                    q = (   0.5000000  -0.5000000   0.5000000 )

      7 Sym.Ops. (with q -> -q+G )

     G cutoff =  383.1325  (   7799 G-vectors)     FFT grid: ( 27, 27, 27)
     number of k points=   378

     PseudoPot. # 1 for Ti read from file:
     /home/user11/Downloads/lab-test/pseudo/ti_pbe_v1.4.uspp.F.UPF
     MD5 check sum: 88a00a6731bd790ddea75d31a80cb452
     Pseudo is Ultrasoft + core correction, Zval = 12.0
     Generated by new atomic code, or converted to UPF format
     Using radial grid of  851 points,  6 beta functions with:
                l(1) =   0
                l(2) =   0
                l(3) =   1
                l(4) =   1
                l(5) =   2
                l(6) =   2
     Q(r) pseudized with  6 coefficients,  rinner =    1.000   1.000   1.000
                                                       1.000   1.000

     PseudoPot. # 2 for Ni read from file:
     /home/user11/Downloads/lab-test/pseudo/ni_pbe_v1.4.uspp.F.UPF
     MD5 check sum: 1ee80287db30b12d2bc1f57a5b5d6409
     Pseudo is Ultrasoft + core correction, Zval = 18.0
     Generated by new atomic code, or converted to UPF format
     Using radial grid of  865 points,  6 beta functions with:
                l(1) =   0
                l(2) =   0
                l(3) =   1
                l(4) =   1
                l(5) =   2
                l(6) =   2
     Q(r) pseudized with 10 coefficients,  rinner =    0.980   0.980   0.980
                                                       0.980   0.980

     PseudoPot. # 3 for Sn read from file:
     /home/user11/Downloads/lab-test/pseudo/Sn_pbe_v1.uspp.F.UPF
     MD5 check sum: 4cf58ce39ec5d5d420df3dd08604eb00
     Pseudo is Ultrasoft + core correction, Zval = 14.0
     Generated by new atomic code, or converted to UPF format
     Using radial grid of  891 points,  6 beta functions with:
                l(1) =   0
                l(2) =   0
                l(3) =   1
                l(4) =   1
                l(5) =   2
                l(6) =   2
     Q(r) pseudized with  6 coefficients,  rinner =    1.200   1.200   1.200
                                                       1.200   1.200

     Mode symmetry, C_3v (3m)   point group:

     Atomic displacements:
     There are    6 irreducible representations

     Representation     1      1 modes -  Done

[...]

     Representation     3      1 modes -  Done

     Representation     4      2 modes -  To be done

[...]

     Representation #   4 modes #   4   5

     Self-consistent Calculation

      thresh= 3.848E-04 alpha_mix =  0.700 |ddv_scf|^2 =  9.517E-08

[...]

     End of self-consistent calculation

     Convergence has been achieved

[...]

     Number of q in the star =    4
     List of q in the star:
          1   0.500000000  -0.500000000   0.500000000
          2  -0.500000000  -0.500000000  -0.500000000
          3  -0.500000000   0.500000000   0.500000000
          4   0.500000000   0.500000000  -0.500000000

     Diagonalizing the dynamical matrix

     q = (    0.500000000  -0.500000000   0.500000000 )

     freq (    1) =       4.202910 [THz] =     140.193993 [cm-1]
     freq (    2) =       4.202910 [THz] =     140.193993 [cm-1]
     freq (    3) =       4.674305 [THz] =     155.918022 [cm-1]
     freq (    4) =       6.228493 [THz] =     207.760169 [cm-1]
     freq (    5) =       6.228493 [THz] =     207.760169 [cm-1]
     freq (    6) =       6.566380 [THz] =     219.030857 [cm-1]
     freq (    7) =       8.900421 [THz] =     296.886080 [cm-1]
     freq (    8) =       8.900421 [THz] =     296.886080 [cm-1]
     freq (    9) =       9.622936 [THz] =     320.986608 [cm-1]

     Mode symmetry, C_3v (3m)   point group:

     freq (   1-   2) =        140.2  [cm-1]   --> E    L_3
     freq (   3-   3) =        155.9  [cm-1]   --> A_1  L_1
     freq (   4-   5) =        207.8  [cm-1]   --> E    L_3
     freq (   6-   6) =        219.0  [cm-1]   --> A_1  L_1
     freq (   7-   8) =        296.9  [cm-1]   --> E    L_3
     freq (   9-   9) =        321.0  [cm-1]   --> A_1  L_1

     Calculation of q =    0.0000000  -1.0000000   0.0000000

     Subspace diagonalization in iterative solution of the eigenvalue problem:
     a serial algorithm will be used

     Title:
     phonons of tisisn

     bravais-lattice index     =            2
     lattice parameter (alat)  =      11.2270  a.u.
     unit-cell volume          =     353.7783 (a.u.)^3
     number of atoms/cell      =            3
     number of atomic types    =            3
     number of electrons       =        44.00
     number of Kohn-Sham states=           22
     kinetic-energy cutoff     =      30.0000  Ry
     charge density cutoff     =     120.0000  Ry
     Exchange-correlation= PBE
                           (   1   4   3   4   0   0   0)

[...]

     atomic species   valence    mass     pseudopotential
        Ti            12.00    47.86700     Ti( 1.00)
        Ni            18.00    58.69354     Ni( 1.00)
        Sn            14.00   118.71000     Sn( 1.00)

     24 Sym. Ops. (no inversion) found

[...]

     site n.     atom                  positions (alat units)
         1           Ti  tau(   1) = (   0.5000000   0.5000000   0.5000000  )
         2           Ni  tau(   2) = (   0.2500000   0.2500000   0.2500000  )
         3           Sn  tau(   3) = (   0.0000000   0.0000000   0.0000000  )

     number of k points=   326

     Number of k-points >= 100: set verbosity='high' to print them.

     Check: negative core charge=   -0.000297

     The potential is recalculated from file :
     /home/user11/Downloads/lab-test/tmp/_ph0/tinisn.save/charge-density

     Starting wfcs are   32 atomic wfcs

     Band Structure Calculation
     Davidson diagonalization with overlap

     ethr =  2.27E-11,  avg # of iterations = 15.1

     End of band structure calculation

     Number of k-points >= 100: set verbosity='high' to print the bands.

     highest occupied level (ev):    13.4631

     Writing output data file /home/user11/Downloads/lab-test/tmp/_ph0/tinisn.save/
     Message from routine ph_restart_set_filename :
     cannot open file for reading or writing
     Message from routine ph_restart_set_filename :
     cannot open file for reading or writing
     Message from routine ph_restart_set_filename :
     cannot open file for reading or writing
     Message from routine ph_restart_set_filename :
     cannot open file for reading or writing
     Message from routine ph_restart_set_filename :
     cannot open file for reading or writing
     Message from routine ph_restart_set_filename :
     cannot open file for reading or writing
     Message from routine ph_restart_set_filename :
     cannot open file for reading or writing

     phonons of tisisn

     bravais-lattice index     =            2
     lattice parameter (alat)  =      11.2270  a.u.
     unit-cell volume          =     353.7783 (a.u.)^3
     number of atoms/cell      =            3
     number of atomic types    =            3
     kinetic-energy cut-off    =      30.0000  Ry
     charge density cut-off    =     120.0000  Ry
     convergence threshold     =      1.0E-12
     beta                      =       0.7000
     number of iterations used =            4
     Exchange-correlation= PBE
                           (   1   4   3   4   0   0   0)

     celldm(1)=   11.22700  celldm(2)=    0.00000  celldm(3)=    0.00000
     celldm(4)=    0.00000  celldm(5)=    0.00000  celldm(6)=    0.00000

     crystal axes: (cart. coord. in units of alat)
               a(1) = ( -0.5000  0.0000  0.5000 )
               a(2) = (  0.0000  0.5000  0.5000 )
               a(3) = ( -0.5000  0.5000  0.0000 )

     reciprocal axes: (cart. coord. in units 2 pi/alat)
               b(1) = ( -1.0000 -1.0000  1.0000 )
               b(2) = (  1.0000  1.0000  1.0000 )
               b(3) = ( -1.0000  1.0000 -1.0000 )

     Atoms inside the unit cell:

     Cartesian axes

     site n.  atom      mass           positions (alat units)
        1     Ti  47.8670   tau(    1) = (    0.50000    0.50000    0.50000  )
        2     Ni  58.6935   tau(    2) = (    0.25000    0.25000    0.25000  )
        3     Sn 118.7100   tau(    3) = (    0.00000    0.00000    0.00000  )

     Computing dynamical matrix for
                    q = (   0.0000000  -1.0000000   0.0000000 )

      9 Sym.Ops. (with q -> -q+G )

     G cutoff =  383.1325  (   7799 G-vectors)     FFT grid: ( 27, 27, 27)
     number of k points=   326

     PseudoPot. # 1 for Ti read from file:
     /home/user11/Downloads/lab-test/pseudo/ti_pbe_v1.4.uspp.F.UPF
     MD5 check sum: 88a00a6731bd790ddea75d31a80cb452
     Pseudo is Ultrasoft + core correction, Zval = 12.0
     Generated by new atomic code, or converted to UPF format
     Using radial grid of  851 points,  6 beta functions with:
                l(1) =   0
                l(2) =   0
                l(3) =   1
                l(4) =   1
                l(5) =   2
                l(6) =   2
     Q(r) pseudized with  6 coefficients,  rinner =    1.000   1.000   1.000
                                                       1.000   1.000

     PseudoPot. # 2 for Ni read from file:
     /home/user11/Downloads/lab-test/pseudo/ni_pbe_v1.4.uspp.F.UPF
     MD5 check sum: 1ee80287db30b12d2bc1f57a5b5d6409
     Pseudo is Ultrasoft + core correction, Zval = 18.0
     Generated by new atomic code, or converted to UPF format
     Using radial grid of  865 points,  6 beta functions with:
                l(1) =   0
                l(2) =   0
                l(3) =   1
                l(4) =   1
                l(5) =   2
                l(6) =   2
     Q(r) pseudized with 10 coefficients,  rinner =    0.980   0.980   0.980
                                                       0.980   0.980

     PseudoPot. # 3 for Sn read from file:
     /home/user11/Downloads/lab-test/pseudo/Sn_pbe_v1.uspp.F.UPF
     MD5 check sum: 4cf58ce39ec5d5d420df3dd08604eb00
     Pseudo is Ultrasoft + core correction, Zval = 14.0
     Generated by new atomic code, or converted to UPF format
     Using radial grid of  891 points,  6 beta functions with:
                l(1) =   0
                l(2) =   0
                l(3) =   1
                l(4) =   1
                l(5) =   2
                l(6) =   2
     Q(r) pseudized with  6 coefficients,  rinner =    1.200   1.200   1.200
                                                       1.200   1.200

     Mode symmetry, D_2d (-42m) point group:

     Atomic displacements:
     There are    6 irreducible representations

[...]

     Representation     6      2 modes -  To be done

     Alpha used in Ewald sum =   1.1000

     Representation #   1 mode #   1

[...]

     Representation #   3 mode #   3

[...]

     Representation #   6 modes #   8   9

     Self-consistent Calculation

[...]

      thresh= 3.665E-07 alpha_mix =  0.700 |ddv_scf|^2 =  1.347E-13

     End of self-consistent calculation

     Convergence has been achieved

     Number of q in the star =    3
     List of q in the star:
          1   0.000000000  -1.000000000   0.000000000
          2   0.000000000   0.000000000  -1.000000000
          3   1.000000000   0.000000000   0.000000000

     Diagonalizing the dynamical matrix

     q = (    0.000000000  -1.000000000   0.000000000 )

     freq (    1) =       2.981399 [THz] =      99.448754 [cm-1]
     freq (    2) =       3.288061 [THz] =     109.677896 [cm-1]
     freq (    3) =       3.288061 [THz] =     109.677896 [cm-1]
     freq (    4) =       7.053696 [THz] =     235.285987 [cm-1]
     freq (    5) =       7.074844 [THz] =     235.991397 [cm-1]
     freq (    6) =       7.074844 [THz] =     235.991397 [cm-1]
     freq (    7) =       8.341274 [THz] =     278.234958 [cm-1]
     freq (    8) =       8.341274 [THz] =     278.234958 [cm-1]
     freq (    9) =       8.414467 [THz] =     280.676406 [cm-1]

     Mode symmetry, D_2d (-42m) point group:

     freq (   1-   1) =         99.4  [cm-1]   --> B_2  X_3  W_2
     freq (   2-   3) =        109.7  [cm-1]   --> E    X_5  W_3
     freq (   4-   4) =        235.3  [cm-1]   --> B_2  X_3  W_2
     freq (   5-   6) =        236.0  [cm-1]   --> E    X_5  W_3
     freq (   7-   8) =        278.2  [cm-1]   --> E    X_5  W_3
     freq (   9-   9) =        280.7  [cm-1]   --> A_1  X_1  W_1

     General routines

     Parallel routines

     INITIALIZATION:

     DYNAMICAL MATRIX:

      General routines

   This run was terminated on:  18:27:25  27Nov2023

   JOB DONE.